<?xml version = "1.0" standalone="yes"?>
<!-- This file has been generated by DOcplex version 2.23.222  -->
<CPLEXSolution version="1.0">
 <header
   problemName="CVRP"
   objectiveValue="16077.5"
  />
 <variables>
  <variable name="x_0_2" index="1" value="1.00000"/>
  <variable name="x_0_5" index="4" value="1.00000"/>
  <variable name="x_0_7" index="6" value="1.00000"/>
  <variable name="x_0_8" index="7" value="1.00000"/>
  <variable name="x_0_11" index="10" value="1.00000"/>
  <variable name="x_0_12" index="11" value="1.00000"/>
  <variable name="x_0_13" index="12" value="1.00000"/>
  <variable name="x_0_16" index="15" value="1.00000"/>
  <variable name="x_0_17" index="16" value="1.00000"/>
  <variable name="x_0_19" index="18" value="1.00000"/>
  <variable name="x_0_20" index="19" value="1.00000"/>
  <variable name="x_1_0" index="20" value="1.00000"/>
  <variable name="x_2_10" index="49" value="1.00000"/>
  <variable name="x_3_1" index="61" value="1.00000"/>
  <variable name="x_4_0" index="80" value="1.00000"/>
  <variable name="x_5_14" index="113" value="1.00000"/>
  <variable name="x_6_0" index="120" value="1.00000"/>
  <variable name="x_7_0" index="140" value="1.00000"/>
  <variable name="x_8_18" index="177" value="1.00000"/>
  <variable name="x_9_6" index="186" value="1.00000"/>
  <variable name="x_10_0" index="200" value="1.00000"/>
  <variable name="x_11_0" index="220" value="1.00000"/>
  <variable name="x_12_0" index="240" value="1.00000"/>
  <variable name="x_13_0" index="260" value="1.00000"/>
  <variable name="x_14_0" index="280" value="1.00000"/>
  <variable name="x_15_9" index="309" value="1.00000"/>
  <variable name="x_16_3" index="323" value="1.00000"/>
  <variable name="x_17_4" index="344" value="1.00000"/>
  <variable name="x_18_0" index="360" value="1.00000"/>
  <variable name="x_19_0" index="380" value="1.00000"/>
  <variable name="x_20_15" index="415" value="1.00000"/>
  <variable name="u_1" index="420" value="54.00000"/>
  <variable name="u_2" index="421" value="26.00000"/>
  <variable name="u_3" index="422" value="47.00000"/>
  <variable name="u_4" index="423" value="50.00000"/>
  <variable name="u_5" index="424" value="36.00000"/>
  <variable name="u_6" index="425" value="54.00000"/>
  <variable name="u_7" index="426" value="20.00000"/>
  <variable name="u_8" index="427" value="15.00000"/>
  <variable name="u_9" index="428" value="43.00000"/>
  <variable name="u_10" index="429" value="54.00000"/>
  <variable name="u_11" index="430" value="54.00000"/>
  <variable name="u_12" index="431" value="47.00000"/>
  <variable name="u_13" index="432" value="54.00000"/>
  <variable name="u_14" index="433" value="54.00000"/>
  <variable name="u_15" index="434" value="30.00000"/>
  <variable name="u_16" index="435" value="6.00000"/>
  <variable name="u_17" index="436" value="14.00000"/>
  <variable name="u_18" index="437" value="50.00000"/>
  <variable name="u_19" index="438" value="37.00000"/>
  <variable name="u_20" index="439" value="15.00000"/>
 </variables>
</CPLEXSolution>
